qe/outputs/qe/cbrdelay_obs_newl/T=6,eliminate=[I_0,I_1,I_2,I_3,I_4,I_5,L_3,L_4,L_5,C,B,lhs=L_2],pl=1.smt2
; benchmark generated from python API
(set-info :status unknown)
(declare-fun S_0 () Real)
(declare-fun L_0 () Real)
(declare-fun A_0 () Real)
(declare-fun L_2 () Real)
(declare-fun A_5 () Real)
(declare-fun S_5 () Real)
(declare-fun A_4 () Real)
(declare-fun S_1 () Real)
(declare-fun S_4 () Real)
(declare-fun S_2 () Real)
(declare-fun S_3 () Real)
(declare-fun A_2 () Real)
(declare-fun A_1 () Real)
(declare-fun L_1 () Real)
(declare-fun A_3 () Real)
(assert
 (let (($x39 (>= L_0 0.0)))
 (let (($x44551 (<= (+ (* (- (/ 1.0 4.0)) S_5) (* (/ 1.0 4.0) S_0)) (- 5.0))))
 (let (($x550 (<= 0.0 (+ S_5 (* (- 1.0) A_4) L_2))))
 (let (($x14887 (<= (+ S_5 (* (- (/ 1.0 2.0)) S_4) (* (- 1.0) A_4) L_2 (* (/ 1.0 2.0) S_1)) 0.0)))
 (let (($x91440 (or (not (<= (+ (* (- 1.0) L_1) A_1 (* (- 1.0) A_2) L_2) (- 5.0))) $x44551)))
 (let (($x1452 (<= (+ (* (- 1.0) S_5) (* 2.0 S_2) (* (- 1.0) S_1)) 0.0)))
 (let (($x8472 (<= (+ (* (- (/ 1.0 3.0)) S_5) (* (- 1.0) A_0) L_0 (* (/ 4.0 3.0) S_1)) 0.0)))
 (let (($x14530 (<= (+ (* (- 3.0) S_5) (* 4.0 S_3) (* (- 1.0) S_1)) 0.0)))
 (let (($x14983 (<= (+ S_5 (* (- (/ 1.0 3.0)) S_4) (* (- 1.0) A_4) L_2 (* (/ 1.0 3.0) S_0)) 0.0)))
 (let (($x37846 (<= (+ S_5 (* (- 1.0) A_4) L_2 (* (- (/ 1.0 2.0)) S_3) (* (/ 1.0 2.0) S_0)) 0.0)))
 (let (($x10738 (<= (+ (* (- 3.0) S_5) (* (- 1.0) A_0) L_0 (* 4.0 S_3)) 0.0)))
 (let (($x14122 (<= (+ (* (- 4.0) S_5) (* 5.0 S_3) (* (- 1.0) S_0)) 0.0)))
 (let (($x8721 (<= (+ (* (- (/ 2.0 3.0)) S_5) (* (/ 5.0 3.0) S_1) (* (- 1.0) S_0)) 0.0)))
 (let ((?x3473 (* 4.0 L_2)))
 (let ((?x413 (* (- 1.0) S_2)))
 (let ((?x1316 (* (- 4.0) A_2)))
 (let ((?x2688 (* 4.0 A_1)))
 (let ((?x4110 (* (- 4.0) L_1)))
 (let (($x66 (= L_2 L_1)))
 (let ((?x5690 (* (/ 1.0 4.0) S_0)))
 (let ((?x1986 (* (- (/ 3.0 4.0)) L_2)))
 (let ((?x11737 (* (/ 3.0 4.0) A_4)))
 (let ((?x427 (* (- 1.0) S_4)))
 (let (($x11773 (<= (+ ?x427 ?x11737 ?x1986 ?x5690) 0.0)))
 (let ((?x8535 (* (/ 4.0 3.0) S_1)))
 (let ((?x1326 (* (- 1.0) A_0)))
 (let (($x91966 (or $x8472 (<= 0.0 (+ ?x1326 L_0 (* (- (/ 1.0 3.0)) A_4) ?x8535 (* (/ 1.0 3.0) L_2))))))
 (let ((?x4105 (* 5.0 L_2)))
 (let ((?x1298 (* (- 1.0) S_0)))
 (let ((?x4348 (* (- 5.0) A_2)))
 (let ((?x4339 (* 5.0 A_1)))
 (let ((?x4318 (* (- 5.0) L_1)))
 (let (($x49262 (or $x550 (<= (+ (* (- 1.0) S_5) ?x1326 L_0 (* 2.0 S_2)) 0.0))))
 (let (($x11646 (<= (+ ?x427 (* (/ 2.0 3.0) A_4) (* (/ 1.0 3.0) S_1) (* (- (/ 2.0 3.0)) L_2)) 0.0)))
 (let (($x548 (<= (+ (* (- (/ 1.0 2.0)) S_5) (* (/ 1.0 2.0) S_2)) (- 5.0))))
 (let (($x90110 (or $x66 (<= (+ ?x4318 ?x4339 S_5 ?x4348 (* (- 1.0) S_1) ?x4105) 0.0))))
 (let ((?x3794 (* (- 4.0) L_2)))
 (let ((?x3535 (* 4.0 A_2)))
 (let ((?x434 (* (- 1.0) S_5)))
 (let ((?x3968 (* (- 4.0) A_1)))
 (let ((?x4143 (* 4.0 L_1)))
 (let (($x606 (<= 0.0 (+ (* (- 1.0) L_1) L_0))))
 (let (($x3764 (<= (+ L_1 (* (- 1.0) A_1) ?x434 A_2 S_3 (* (- 1.0) L_2)) 0.0)))
 (let ((?x1269 (* (- 2.0) L_2)))
 (let ((?x420 (* (- 1.0) S_3)))
 (let ((?x1268 (* 2.0 A_2)))
 (let ((?x1267 (* (- 2.0) A_1)))
 (let ((?x1159 (* 2.0 L_1)))
 (let (($x56 (= L_1 L_0)))
 (let ((?x4119 (* (- 3.0) L_2)))
 (let ((?x1309 (* 3.0 A_2)))
 (let ((?x1308 (* (- 3.0) A_1)))
 (let ((?x1307 (* 3.0 L_1)))
 (let (($x50098 (or $x66 (<= (+ ?x4110 ?x2688 S_4 ?x1316 (* (- 1.0) S_1) ?x3473) 0.0))))
 (let ((?x1275 (* 2.0 L_2)))
 (let ((?x407 (* (- 1.0) S_1)))
 (let ((?x1274 (* (- 2.0) A_2)))
 (let ((?x1273 (* 2.0 A_1)))
 (let ((?x1272 (* (- 2.0) L_1)))
 (let ((?x5151 (* 6.0 L_2)))
 (let ((?x4988 (* (- 6.0) A_2)))
 (let ((?x3894 (* 6.0 A_1)))
 (let ((?x4918 (* (- 6.0) L_1)))
 (let ((?x1089 (* 3.0 L_2)))
 (let ((?x1174 (* (- 3.0) A_2)))
 (let ((?x1173 (* 3.0 A_1)))
 (let ((?x1176 (* (- 3.0) L_1)))
 (let (($x4679 (<= (+ (* (- 1.0) L_1) A_1 ?x1326 L_0 (* (- 1.0) A_2) S_1 L_2) 0.0)))
 (let (($x1281 (<= (+ L_1 (* (- 1.0) A_1) ?x427 A_2 S_2 (* (- 1.0) L_2)) 0.0)))
 (let (($x4786 (<= (+ L_1 (* (- 1.0) A_1) A_2 ?x413 S_0 (* (- 1.0) L_2)) 0.0)))
 (let (($x4703 (<= (+ L_1 (* (- 1.0) A_1) A_2 ?x420 S_1 (* (- 1.0) L_2)) 0.0)))
 (let (($x570 (<= (+ (* (- 1.0) L_1) A_1 (* (- 1.0) A_2) L_2) (- 5.0))))
 (let (($x137 (>= S_4 S_3)))
 (let (($x143 (>= A_2 A_1)))
 (let (($x128 (>= S_1 S_0)))
 (let (($x131 (>= S_2 S_1)))
 (let (($x134 (>= S_3 S_2)))
 (let (($x144 (>= A_3 A_2)))
 (let (($x145 (>= A_4 A_3)))
 (let (($x146 (>= A_5 A_4)))
 (and (<= (+ A_1 (* (- 1.0) L_1)) S_5) (<= (+ A_0 (* (- 1.0) L_0)) S_4) (not (<= (+ A_1 (* (- 1.0) L_1)) S_4)) $x146 $x145 $x144 $x134 $x131 $x128 $x143 $x137 (or $x56 (not $x606)) (or $x66 $x570) (or $x66 (not (<= 0.0 (+ L_1 (* (- 1.0) L_2))))) (<= (+ ?x427 S_2) (- 5.0)) (<= (+ ?x420 S_1) (- 5.0)) (<= (+ ?x1326 L_0 ?x420 (* 2.0 S_1)) 0.0) (<= (+ (* (- 2.0) S_3) (* 3.0 S_1) ?x1298) 0.0) (<= (+ S_5 (* (- 2.0) S_4) S_1) 0.0) (<= (+ S_4 (* (- 3.0) S_3) (* 2.0 S_1)) 0.0) (or $x66 (<= (+ ?x4110 ?x2688 S_4 ?x1326 L_0 ?x1316 ?x3473) 0.0)) (or $x56 $x4703) (or $x66 (<= (+ ?x1272 ?x1273 ?x1326 L_0 ?x1274 S_2 ?x1275) 0.0)) (or $x66 (<= (+ ?x1176 ?x1173 ?x1326 L_0 ?x1174 S_3 ?x1089) 0.0)) (<= (+ (* (- 2.0) S_4) ?x1326 L_0 (* 3.0 S_2)) 0.0) (<= (+ (* (- (/ 1.0 2.0)) S_4) (* (/ 1.0 2.0) S_1)) (- 5.0)) (<= (+ (* (- (/ 1.0 2.0)) S_3) (* (/ 1.0 2.0) S_0)) (- 5.0)) (<= (+ (* (- (/ 1.0 3.0)) S_4) (* (/ 1.0 3.0) S_0)) (- 5.0)) (or $x56 $x4786) (<= (+ ?x413 S_0) (- 5.0)) (or $x606 $x1281) (<= (+ S_4 (* (- 2.0) S_3) S_0) 0.0) (<= (+ S_5 (* (- (/ 5.0 2.0)) S_3) (* (/ 3.0 2.0) S_0)) 0.0) (or $x66 (<= (+ ?x1272 ?x1273 S_4 ?x1274 ?x420 ?x1275) 0.0)) (or $x66 (<= (+ ?x1176 ?x1173 ?x1174 S_3 ?x407 ?x1089) 0.0)) (or $x66 (<= (+ ?x1272 ?x1273 ?x1274 S_3 ?x413 ?x1275) 0.0)) (<= (+ (* (/ 1.0 4.0) S_4) ?x413 (* (/ 3.0 4.0) S_0)) 0.0) (<= (+ (* (- (/ 1.0 2.0)) S_4) ?x1326 L_0 (* (/ 3.0 2.0) S_1)) 0.0) (<= (+ (* (- 3.0) S_4) (* 4.0 S_2) ?x1298) 0.0) (or $x66 (<= (+ ?x1176 ?x1173 S_4 ?x1174 ?x413 ?x1089) 0.0)) (or $x66 $x4679) (or $x66 (<= (+ ?x4318 ?x4339 S_5 ?x1326 L_0 ?x4348 ?x4105) 0.0)) (or $x66 (<= (+ ?x1176 ?x1173 S_5 ?x1174 ?x420 ?x1089) 0.0)) (or $x66 (<= (+ ?x1272 ?x1273 S_5 ?x427 ?x1274 ?x1275) 0.0)) (or $x606 (<= (+ ?x1159 ?x1267 ?x427 ?x1268 S_1 ?x1269) 0.0)) (or $x66 (<= (+ ?x1272 ?x1273 ?x1274 S_1 ?x1298 ?x1275) 0.0)) (or $x66 (<= (+ ?x1176 ?x1173 ?x1174 S_2 ?x1298 ?x1089) 0.0)) (or $x66 (<= (+ ?x4918 ?x3894 S_5 ?x4988 ?x1298 ?x5151) 0.0)) (<= (+ (* (- 2.0) S_4) (* 3.0 S_2) ?x407) 0.0) (or $x66 (<= (+ ?x1272 ?x1273 ?x1274 S_2 ?x407 ?x1275) 0.0)) (or $x606 (<= (+ ?x1159 ?x1267 ?x434 ?x1268 S_2 ?x1269) 0.0)) (or $x606 (<= (+ ?x1307 ?x1308 ?x427 ?x1309 S_0 ?x4119) 0.0)) (or $x66 (<= (+ (* (- 2.0) S_5) (* 3.0 S_3) ?x413) 0.0)) (<= (+ S_5 (* (- 3.0) S_4) (* 2.0 S_2)) 0.0) (<= (+ ?x427 (* 2.0 S_1) ?x1298) 0.0) (or $x550 (<= (+ (* (- 2.0) S_5) (* 3.0 S_3) ?x413) 0.0)) (or (<= (+ (* (- (/ 3.0 2.0)) S_5) (* (/ 5.0 2.0) S_2) ?x1298) 0.0) $x11646) (or $x550 (<= (+ (* (- (/ 3.0 2.0)) S_5) (* (/ 5.0 2.0) S_2) ?x1298) 0.0)) (<= (+ (* (/ 1.0 3.0) S_3) ?x413 (* (/ 2.0 3.0) S_0)) 0.0) $x50098 (or $x606 (<= (+ ?x1307 ?x1308 ?x434 ?x1309 S_1 ?x4119) 0.0)) (or $x11646 (<= (+ (* (- (/ 1.0 3.0)) S_5) (* (/ 1.0 3.0) S_1)) (- 5.0))) (or $x56 (<= (+ ?x1159 ?x1267 ?x1268 ?x420 S_0 ?x1269) 0.0)) (or $x11646 (<= (+ ?x434 S_3) (- 5.0))) (or $x8472 $x11646) (<= (+ (* (/ 1.0 4.0) S_5) ?x420 (* (/ 3.0 4.0) S_1)) 0.0) (or $x8721 $x11646) (or $x606 $x3764) (<= (+ (* (/ 1.0 5.0) S_5) ?x413 (* (/ 4.0 5.0) S_0)) 0.0) (or $x66 (<= (+ ?x4110 ?x2688 ?x1316 S_3 ?x1298 ?x3473) 0.0)) (or $x66 (<= (+ (* (- (/ 1.0 3.0)) S_5) (* (/ 1.0 3.0) S_1)) (- 5.0))) (or $x606 (<= (+ ?x4143 ?x3968 ?x434 ?x3535 S_0 ?x3794) 0.0)) (or $x11646 $x44551) (<= (+ (* (/ 3.0 5.0) S_5) ?x427 (* (/ 2.0 5.0) S_0)) 0.0) $x90110 (or $x548 $x11646) (or $x548 $x550) $x49262 (or $x66 (<= (+ ?x4318 ?x4339 S_4 ?x4348 ?x1298 ?x4105) 0.0)) $x91966 (or $x10738 $x11773) (or $x11773 $x14530) (or $x1452 $x11773) (or $x11773 $x14122) (or $x66 (<= (+ ?x4110 ?x2688 S_5 ?x1316 ?x413 ?x3473) 0.0)) (or $x550 $x8721) (or $x66 $x44551) (or $x550 (<= (+ ?x434 S_3) (- 5.0))) (or $x550 (<= (+ (* (- (/ 1.0 3.0)) S_5) (* (/ 1.0 3.0) S_1)) (- 5.0))) (or $x550 $x14122) (or $x550 $x10738) $x37846 $x14983 (or $x550 $x14530) (<= (+ S_5 (* (- 1.0) A_4) L_2 ?x413 S_0) 0.0) (or $x550 $x8472) (or $x550 $x1452) $x91440 (<= (+ S_5 (* (- 1.0) A_4) L_2 ?x420 S_1) 0.0) (<= (+ S_5 ?x427 (* (- 1.0) A_4) L_2 S_2) 0.0) $x14887 (or $x550 $x44551) $x39 (<= (+ S_5 (* (- 1.0) A_5) L_2) 0.0) (<= (+ ?x1326 L_0 S_0) 0.0)))))))))))))))))))))))))))))))))))))))))))))))))))))))))))))))))))))))))))))))))))
(check-sat)
